100
128
26
11
38
55
53
21
25
53
45
5
38
49
42
5
37
26
13
10
47
14
10
22
12
64
18
37
30
64
30
7
13
7
33
15
14
20
6
17
40
30
24
46
53
28
17
9
9
7
21
3
33
22
55
47
7
8
7
54
9
40
36
53
21
36
9
39
43
29
21
37
13
12
2
17
51
61
45
44
20
22
63
62
21
43
53
61
55
31
38
45
29
59
19
40
43
51
32
1
27
32